
Gurobi 11.0.3 (linux64) logging started Sun Nov 24 17:31:51 2024

Set parameter LogFile to value "/home/yihong/Coding/OR_SUC/SUC_results_bigM100000_thread4/case24_ieee_rts_theta0.5_epsilon0.05_gurobi_seed1230000_num_gen100_N_WDR100_load_scaling_factor1_exact_T28quadra_cost.txt"
Set parameter TimeLimit to value 3600
Gurobi Optimizer version 11.0.3 build v11.0.3rc0 (linux64 - "Ubuntu 20.04.6 LTS")

CPU model: AMD EPYC 7532 32-Core Processor, instruction set [SSE2|AVX|AVX2]
Thread count: 64 physical cores, 128 logical processors, using up to 4 threads

Optimize a model with 67335 rows, 34921 columns and 1546834 nonzeros
Model fingerprint: 0xf44d464c
Model has 2800 quadratic constraints
Variable types: 32021 continuous, 2900 integer (2900 binary)
Coefficient statistics:
  Matrix range     [3e-04, 1e+05]
  QMatrix range    [2e-03, 8e-03]
  QLMatrix range   [5e-02, 6e+01]
  Objective range  [1e+00, 1e+00]
  Bounds range     [1e+00, 1e+00]
  RHS range        [1e+00, 1e+05]
Presolve removed 55003 rows and 14789 columns
Presolve time: 0.46s
Presolved: 12332 rows, 20132 columns, 69788 nonzeros
Presolved model has 2800 quadratic constraint(s)
Variable types: 17241 continuous, 2891 integer (2891 binary)

Root relaxation: objective 5.517253e+04, 9892 iterations, 0.32 seconds (0.46 work units)

    Nodes    |    Current Node    |     Objective Bounds      |     Work
 Expl Unexpl |  Obj  Depth IntInf | Incumbent    BestBd   Gap | It/Node Time

     0     0 55172.5289    0   10          - 55172.5289      -     -    0s
     0     0 354781.338    0  845          - 354781.338      -     -    1s
     0     0 402488.661    0  792          - 402488.661      -     -    1s
     0     0 730719.222    0  810          - 730719.222      -     -    2s
     0     0 731561.886    0  609          - 731561.886      -     -    2s
     0     0 732835.982    0  496          - 732835.982      -     -    2s
     0     0 732838.941    0  496          - 732838.941      -     -    2s
     0     0 732855.434    0  495          - 732855.434      -     -    2s
     0     0 732858.142    0  495          - 732858.142      -     -    2s
     0     2 732858.142    0  495          - 732858.142      -     -    4s
    52    82 732952.165   11  472          - 732877.847      -  54.2    5s
H 1093   667                    733575.39180 732877.847  0.10%  16.9    7s
* 1093   667             305    733575.39180 732877.847  0.10%  16.9    7s

Cutting planes:
  Gomory: 3
  Implied bound: 433
  MIR: 123
  Flow cover: 126
  RLT: 1
  Relax-and-lift: 41

Explored 1219 nodes (46409 simplex iterations) in 7.72 seconds (10.10 work units)
Thread count was 4 (of 128 available processors)

Solution count 2: 733575 733575 

Optimal solution found (tolerance 1.00e-03)
Warning: max constraint violation (5.2157e-07) exceeds tolerance
Best objective 7.335753918037e+05, best bound 7.328778466759e+05, gap 0.0951%
